NAME : problems/30-tsp/instance-26.tsp
COMMENT : No Comment
TYPE : TSP
DIMENSION: 30
EDGE_WEIGHT_TYPE : EUC_2D
NODE_COORD_SECTION
1 5805 4909 
2 5272 5724 
3 764 6973 
4 6755 4106 
5 2749 5813 
6 4943 9129 
7 1672 4764 
8 8287 259 
9 3999 1219 
10 2312 90 
11 8620 7414 
12 7302 3847 
13 7966 2094 
14 1591 7074 
15 7897 7336 
16 4671 1318 
17 4892 8747 
18 7235 2332 
19 7951 5895 
20 5104 9831 
21 9671 1922 
22 141 897 
23 8962 5104 
24 7876 1043 
25 1924 3771 
26 6309 3992 
27 3390 9841 
28 8812 7473 
29 3700 1254 
30 6633 167 
EOF
